p cnf 16 144
2 -8 -11 0
8 -12 16 0
-3 -5 -13 0
-8 9 -16 0
-2 13 14 0
9 -11 16 0
-1 9 -13 0
-2 -9 15 0
1 7 12 0
-8 -13 16 0
-3 -12 -14 0
2 10 15 0
-2 10 16 0
4 11 13 0
3 -5 9 0
7 -8 -15 0
-5 -6 13 0
3 12 -15 0
-3 -5 -14 0
-5 7 15 0
4 -5 -10 0
-1 7 -13 0
5 13 14 0
-5 -9 -12 0
10 14 15 0
-9 12 14 0
-9 11 -15 0
-7 -11 -16 0
-1 2 -4 0
8 -12 15 0
1 -8 13 0
6 7 -16 0
2 -12 -13 0
7 -11 -15 0
10 -12 15 0
1 -4 5 0
6 11 -14 0
4 -7 11 0
-3 -7 -13 0
-7 -9 -10 0
1 -7 10 0
5 11 -13 0
6 9 16 0
5 -7 10 0
2 -4 5 0
1 4 -9 0
-5 -6 -7 0
2 8 -11 0
-1 -3 -14 0
-13 15 -16 0
1 6 -9 0
1 -11 15 0
-5 6 16 0
1 9 -11 0
1 6 -11 0
3 -9 -16 0
1 6 -16 0
8 10 14 0
2 -3 13 0
-2 -6 -7 0
1 6 -10 0
2 3 -8 0
2 -15 16 0
7 10 -11 0
-1 2 -16 0
3 8 16 0
-4 7 16 0
-2 -5 -15 0
-9 11 -14 0
7 9 15 0
1 2 -4 0
-3 6 -13 0
-1 -3 -16 0
9 12 16 0
2 8 9 0
4 8 12 0
2 6 -8 0
4 14 16 0
-11 15 16 0
-6 -12 15 0
1 4 -6 0
11 12 -14 0
-7 -9 11 0
-2 12 15 0
10 14 -16 0
1 6 -12 0
3 -13 -15 0
-1 6 -9 0
5 10 15 0
-1 -10 12 0
5 10 11 0
-1 2 9 0
-3 7 -16 0
-7 -8 -14 0
1 -2 15 0
-2 -8 -11 0
-7 14 15 0
6 11 -15 0
-1 2 4 0
1 7 -8 0
3 -5 14 0
-1 6 7 0
-1 -3 14 0
1 -8 16 0
2 7 9 0
4 6 -16 0
1 5 8 0
2 -8 11 0
4 -9 14 0
-7 14 16 0
4 -7 9 0
-4 10 -14 0
-1 -5 8 0
-1 -9 -14 0
1 -4 14 0
-4 -9 -15 0
-2 3 11 0
10 12 16 0
-5 -13 -15 0
-2 -5 -10 0
6 9 -13 0
-1 9 -12 0
-1 10 15 0
7 11 -13 0
-3 7 13 0
4 -6 -14 0
-5 -9 13 0
4 7 -13 0
-7 8 13 0
-10 12 -14 0
-8 -15 16 0
-3 4 -16 0
5 -7 11 0
-3 -14 15 0
-5 6 -14 0
-10 11 -12 0
-5 -10 -13 0
5 -7 -10 0
-1 -4 5 0
-9 10 12 0
2 -13 15 0
-1 -2 -10 0
1 -8 -11 0
2 -3 -7 0
